2 1
3 1
3 2
4 1
4 2
4 3
5 1
5 2
5 3
5 4
6 1
6 2
6 3
6 4
6 5
7 1
7 2
7 3
7 4
7 5
7 6
8 1
8 2
8 3
8 4
8 5
8 6
8 7
9 1
9 2
9 3
9 4
9 5
9 6
9 7
9 8
10 1
10 2
10 3
10 4
10 5
10 6
10 7
10 8
10 9
11 1
11 2
11 3
11 4
11 5
11 6
11 7
11 8
11 9
11 10
12 1
12 2
12 3
12 4
12 5
12 6
12 7
12 8
12 9
12 10
12 11
13 1
13 2
13 3
13 4
13 5
13 6
13 7
13 8
13 9
13 10
13 11
13 12
14 1
14 2
14 3
14 4
14 5
14 6
14 7
14 8
14 9
14 10
14 11
14 12
14 13
15 1
15 2
16 1
16 2
16 3
16 15
17 2
17 3
17 4
17 15
17 16
18 3
18 4
18 5
18 15
18 16
18 17
19 4
19 5
19 6
19 15
19 16
19 17
19 18
20 5
20 6
20 7
20 15
20 16
20 17
20 18
20 19
21 6
21 7
21 8
21 15
21 16
21 17
21 18
21 19
21 20
22 7
22 8
22 9
22 15
22 16
22 17
22 18
22 19
22 20
22 21
23 8
23 9
23 10
23 15
23 16
23 17
23 18
23 19
23 20
23 21
23 22
24 9
24 10
24 11
24 15
24 16
24 17
24 18
24 19
24 20
24 21
24 22
24 23
25 10
25 11
25 12
25 15
25 16
25 17
25 18
25 19
25 20
25 21
25 22
25 23
25 24
26 11
26 12
26 13
26 15
26 16
26 17
26 18
26 19
26 20
26 21
26 22
26 23
26 24
26 25
27 12
27 13
27 14
27 15
27 16
27 17
27 18
27 19
27 20
27 21
27 22
27 23
27 24
27 25
27 26
28 13
28 14
28 15
28 16
28 17
28 18
28 19
28 20
28 21
28 22
28 23
28 24
28 25
28 26
28 27
29 1
29 3
29 15
29 16
30 2
30 4
30 15
30 16
30 17
30 29
31 1
31 3
31 5
31 16
31 17
31 18
31 29
31 30
32 2
32 4
32 6
32 17
32 18
32 19
32 29
32 30
32 31
33 3
33 5
33 7
33 18
33 19
33 20
33 29
33 30
33 31
33 32
34 4
34 6
34 8
34 19
34 20
34 21
34 29
34 30
34 31
34 32
34 33
35 5
35 7
35 9
35 20
35 21
35 22
35 29
35 30
35 31
35 32
35 33
35 34
36 6
36 8
36 10
36 21
36 22
36 23
36 29
36 30
36 31
36 32
36 33
36 34
36 35
37 7
37 9
37 11
37 22
37 23
37 24
37 29
37 30
37 31
37 32
37 33
37 34
37 35
37 36
38 8
38 10
38 12
38 23
38 24
38 25
38 29
38 30
38 31
38 32
38 33
38 34
38 35
38 36
38 37
39 9
39 11
39 13
39 24
39 25
39 26
39 29
39 30
39 31
39 32
39 33
39 34
39 35
39 36
39 37
39 38
40 10
40 12
40 14
40 25
40 26
40 27
40 29
40 30
40 31
40 32
40 33
40 34
40 35
40 36
40 37
40 38
40 39
41 11
41 13
41 26
41 27
41 28
41 29
41 30
41 31
41 32
41 33
41 34
41 35
41 36
41 37
41 38
41 39
41 40
42 12
42 14
42 27
42 28
42 29
42 30
42 31
42 32
42 33
42 34
42 35
42 36
42 37
42 38
42 39
42 40
42 41
43 1
43 4
43 15
43 17
43 29
43 30
44 2
44 5
44 16
44 18
44 29
44 30
44 31
44 43
45 3
45 6
45 15
45 17
45 19
45 30
45 31
45 32
45 43
45 44
46 1
46 4
46 7
46 16
46 18
46 20
46 31
46 32
46 33
46 43
46 44
46 45
47 2
47 5
47 8
47 17
47 19
47 21
47 32
47 33
47 34
47 43
47 44
47 45
47 46
48 3
48 6
48 9
48 18
48 20
48 22
48 33
48 34
48 35
48 43
48 44
48 45
48 46
48 47
49 4
49 7
49 10
49 19
49 21
49 23
49 34
49 35
49 36
49 43
49 44
49 45
49 46
49 47
49 48
50 5
50 8
50 11
50 20
50 22
50 24
50 35
50 36
50 37
50 43
50 44
50 45
50 46
50 47
50 48
50 49
51 6
51 9
51 12
51 21
51 23
51 25
51 36
51 37
51 38
51 43
51 44
51 45
51 46
51 47
51 48
51 49
51 50
52 7
52 10
52 13
52 22
52 24
52 26
52 37
52 38
52 39
52 43
52 44
52 45
52 46
52 47
52 48
52 49
52 50
52 51
53 8
53 11
53 14
53 23
53 25
53 27
53 38
53 39
53 40
53 43
53 44
53 45
53 46
53 47
53 48
53 49
53 50
53 51
53 52
54 9
54 12
54 24
54 26
54 28
54 39
54 40
54 41
54 43
54 44
54 45
54 46
54 47
54 48
54 49
54 50
54 51
54 52
54 53
55 10
55 13
55 25
55 27
55 40
55 41
55 42
55 43
55 44
55 45
55 46
55 47
55 48
55 49
55 50
55 51
55 52
55 53
55 54
56 11
56 14
56 26
56 28
56 41
56 42
56 43
56 44
56 45
56 46
56 47
56 48
56 49
56 50
56 51
56 52
56 53
56 54
56 55
57 1
57 5
57 15
57 18
57 29
57 31
57 43
57 44
58 2
58 6
58 16
58 19
58 30
58 32
58 43
58 44
58 45
58 57
59 3
59 7
59 17
59 20
59 29
59 31
59 33
59 44
59 45
59 46
59 57
59 58
60 4
60 8
60 15
60 18
60 21
60 30
60 32
60 34
60 45
60 46
60 47
60 57
60 58
60 59
61 1
61 5
61 9
61 16
61 19
61 22
61 31
61 33
61 35
61 46
61 47
61 48
61 57
61 58
61 59
61 60
62 2
62 6
62 10
62 17
62 20
62 23
62 32
62 34
62 36
62 47
62 48
62 49
62 57
62 58
62 59
62 60
62 61
63 3
63 7
63 11
63 18
63 21
63 24
63 33
63 35
63 37
63 48
63 49
63 50
63 57
63 58
63 59
63 60
63 61
63 62
64 4
64 8
64 12
64 19
64 22
64 25
64 34
64 36
64 38
64 49
64 50
64 51
64 57
64 58
64 59
64 60
64 61
64 62
64 63
65 5
65 9
65 13
65 20
65 23
65 26
65 35
65 37
65 39
65 50
65 51
65 52
65 57
65 58
65 59
65 60
65 61
65 62
65 63
65 64
66 6
66 10
66 14
66 21
66 24
66 27
66 36
66 38
66 40
66 51
66 52
66 53
66 57
66 58
66 59
66 60
66 61
66 62
66 63
66 64
66 65
67 7
67 11
67 22
67 25
67 28
67 37
67 39
67 41
67 52
67 53
67 54
67 57
67 58
67 59
67 60
67 61
67 62
67 63
67 64
67 65
67 66
68 8
68 12
68 23
68 26
68 38
68 40
68 42
68 53
68 54
68 55
68 57
68 58
68 59
68 60
68 61
68 62
68 63
68 64
68 65
68 66
68 67
69 9
69 13
69 24
69 27
69 39
69 41
69 54
69 55
69 56
69 57
69 58
69 59
69 60
69 61
69 62
69 63
69 64
69 65
69 66
69 67
69 68
70 10
70 14
70 25
70 28
70 40
70 42
70 55
70 56
70 57
70 58
70 59
70 60
70 61
70 62
70 63
70 64
70 65
70 66
70 67
70 68
70 69
71 1
71 6
71 15
71 19
71 29
71 32
71 43
71 45
71 57
71 58
72 2
72 7
72 16
72 20
72 30
72 33
72 44
72 46
72 57
72 58
72 59
72 71
73 3
73 8
73 17
73 21
73 31
73 34
73 43
73 45
73 47
73 58
73 59
73 60
73 71
73 72
74 4
74 9
74 18
74 22
74 29
74 32
74 35
74 44
74 46
74 48
74 59
74 60
74 61
74 71
74 72
74 73
75 5
75 10
75 15
75 19
75 23
75 30
75 33
75 36
75 45
75 47
75 49
75 60
75 61
75 62
75 71
75 72
75 73
75 74
76 1
76 6
76 11
76 16
76 20
76 24
76 31
76 34
76 37
76 46
76 48
76 50
76 61
76 62
76 63
76 71
76 72
76 73
76 74
76 75
77 2
77 7
77 12
77 17
77 21
77 25
77 32
77 35
77 38
77 47
77 49
77 51
77 62
77 63
77 64
77 71
77 72
77 73
77 74
77 75
77 76
78 3
78 8
78 13
78 18
78 22
78 26
78 33
78 36
78 39
78 48
78 50
78 52
78 63
78 64
78 65
78 71
78 72
78 73
78 74
78 75
78 76
78 77
79 4
79 9
79 14
79 19
79 23
79 27
79 34
79 37
79 40
79 49
79 51
79 53
79 64
79 65
79 66
79 71
79 72
79 73
79 74
79 75
79 76
79 77
79 78
80 5
80 10
80 20
80 24
80 28
80 35
80 38
80 41
80 50
80 52
80 54
80 65
80 66
80 67
80 71
80 72
80 73
80 74
80 75
80 76
80 77
80 78
80 79
81 6
81 11
81 21
81 25
81 36
81 39
81 42
81 51
81 53
81 55
81 66
81 67
81 68
81 71
81 72
81 73
81 74
81 75
81 76
81 77
81 78
81 79
81 80
82 7
82 12
82 22
82 26
82 37
82 40
82 52
82 54
82 56
82 67
82 68
82 69
82 71
82 72
82 73
82 74
82 75
82 76
82 77
82 78
82 79
82 80
82 81
83 8
83 13
83 23
83 27
83 38
83 41
83 53
83 55
83 68
83 69
83 70
83 71
83 72
83 73
83 74
83 75
83 76
83 77
83 78
83 79
83 80
83 81
83 82
84 9
84 14
84 24
84 28
84 39
84 42
84 54
84 56
84 69
84 70
84 71
84 72
84 73
84 74
84 75
84 76
84 77
84 78
84 79
84 80
84 81
84 82
84 83
85 1
85 7
85 15
85 20
85 29
85 33
85 43
85 46
85 57
85 59
85 71
85 72
86 2
86 8
86 16
86 21
86 30
86 34
86 44
86 47
86 58
86 60
86 71
86 72
86 73
86 85
87 3
87 9
87 17
87 22
87 31
87 35
87 45
87 48
87 57
87 59
87 61
87 72
87 73
87 74
87 85
87 86
88 4
88 10
88 18
88 23
88 32
88 36
88 43
88 46
88 49
88 58
88 60
88 62
88 73
88 74
88 75
88 85
88 86
88 87
89 5
89 11
89 19
89 24
89 29
89 33
89 37
89 44
89 47
89 50
89 59
89 61
89 63
89 74
89 75
89 76
89 85
89 86
89 87
89 88
90 6
90 12
90 15
90 20
90 25
90 30
90 34
90 38
90 45
90 48
90 51
90 60
90 62
90 64
90 75
90 76
90 77
90 85
90 86
90 87
90 88
90 89
91 1
91 7
91 13
91 16
91 21
91 26
91 31
91 35
91 39
91 46
91 49
91 52
91 61
91 63
91 65
91 76
91 77
91 78
91 85
91 86
91 87
91 88
91 89
91 90
92 2
92 8
92 14
92 17
92 22
92 27
92 32
92 36
92 40
92 47
92 50
92 53
92 62
92 64
92 66
92 77
92 78
92 79
92 85
92 86
92 87
92 88
92 89
92 90
92 91
93 3
93 9
93 18
93 23
93 28
93 33
93 37
93 41
93 48
93 51
93 54
93 63
93 65
93 67
93 78
93 79
93 80
93 85
93 86
93 87
93 88
93 89
93 90
93 91
93 92
94 4
94 10
94 19
94 24
94 34
94 38
94 42
94 49
94 52
94 55
94 64
94 66
94 68
94 79
94 80
94 81
94 85
94 86
94 87
94 88
94 89
94 90
94 91
94 92
94 93
95 5
95 11
95 20
95 25
95 35
95 39
95 50
95 53
95 56
95 65
95 67
95 69
95 80
95 81
95 82
95 85
95 86
95 87
95 88
95 89
95 90
95 91
95 92
95 93
95 94
96 6
96 12
96 21
96 26
96 36
96 40
96 51
96 54
96 66
96 68
96 70
96 81
96 82
96 83
96 85
96 86
96 87
96 88
96 89
96 90
96 91
96 92
96 93
96 94
96 95
97 7
97 13
97 22
97 27
97 37
97 41
97 52
97 55
97 67
97 69
97 82
97 83
97 84
97 85
97 86
97 87
97 88
97 89
97 90
97 91
97 92
97 93
97 94
97 95
97 96
98 8
98 14
98 23
98 28
98 38
98 42
98 53
98 56
98 68
98 70
98 83
98 84
98 85
98 86
98 87
98 88
98 89
98 90
98 91
98 92
98 93
98 94
98 95
98 96
98 97
99 1
99 8
99 15
99 21
99 29
99 34
99 43
99 47
99 57
99 60
99 71
99 73
99 85
99 86
100 2
100 9
100 16
100 22
100 30
100 35
100 44
100 48
100 58
100 61
100 72
100 74
100 85
100 86
100 87
100 99
101 3
101 10
101 17
101 23
101 31
101 36
101 45
101 49
101 59
101 62
101 71
101 73
101 75
101 86
101 87
101 88
101 99
101 100
102 4
102 11
102 18
102 24
102 32
102 37
102 46
102 50
102 57
102 60
102 63
102 72
102 74
102 76
102 87
102 88
102 89
102 99
102 100
102 101
103 5
103 12
103 19
103 25
103 33
103 38
103 43
103 47
103 51
103 58
103 61
103 64
103 73
103 75
103 77
103 88
103 89
103 90
103 99
103 100
103 101
103 102
104 6
104 13
104 20
104 26
104 29
104 34
104 39
104 44
104 48
104 52
104 59
104 62
104 65
104 74
104 76
104 78
104 89
104 90
104 91
104 99
104 100
104 101
104 102
104 103
105 7
105 14
105 15
105 21
105 27
105 30
105 35
105 40
105 45
105 49
105 53
105 60
105 63
105 66
105 75
105 77
105 79
105 90
105 91
105 92
105 99
105 100
105 101
105 102
105 103
105 104
106 1
106 8
106 16
106 22
106 28
106 31
106 36
106 41
106 46
106 50
106 54
106 61
106 64
106 67
106 76
106 78
106 80
106 91
106 92
106 93
106 99
106 100
106 101
106 102
106 103
106 104
106 105
107 2
107 9
107 17
107 23
107 32
107 37
107 42
107 47
107 51
107 55
107 62
107 65
107 68
107 77
107 79
107 81
107 92
107 93
107 94
107 99
107 100
107 101
107 102
107 103
107 104
107 105
107 106
108 3
108 10
108 18
108 24
108 33
108 38
108 48
108 52
108 56
108 63
108 66
108 69
108 78
108 80
108 82
108 93
108 94
108 95
108 99
108 100
108 101
108 102
108 103
108 104
108 105
108 106
108 107
109 4
109 11
109 19
109 25
109 34
109 39
109 49
109 53
109 64
109 67
109 70
109 79
109 81
109 83
109 94
109 95
109 96
109 99
109 100
109 101
109 102
109 103
109 104
109 105
109 106
109 107
109 108
110 5
110 12
110 20
110 26
110 35
110 40
110 50
110 54
110 65
110 68
110 80
110 82
110 84
110 95
110 96
110 97
110 99
110 100
110 101
110 102
110 103
110 104
110 105
110 106
110 107
110 108
110 109
111 6
111 13
111 21
111 27
111 36
111 41
111 51
111 55
111 66
111 69
111 81
111 83
111 96
111 97
111 98
111 99
111 100
111 101
111 102
111 103
111 104
111 105
111 106
111 107
111 108
111 109
111 110
112 7
112 14
112 22
112 28
112 37
112 42
112 52
112 56
112 67
112 70
112 82
112 84
112 97
112 98
112 99
112 100
112 101
112 102
112 103
112 104
112 105
112 106
112 107
112 108
112 109
112 110
112 111
113 1
113 9
113 15
113 22
113 29
113 35
113 43
113 48
113 57
113 61
113 71
113 74
113 85
113 87
113 99
113 100
114 2
114 10
114 16
114 23
114 30
114 36
114 44
114 49
114 58
114 62
114 72
114 75
114 86
114 88
114 99
114 100
114 101
114 113
115 3
115 11
115 17
115 24
115 31
115 37
115 45
115 50
115 59
115 63
115 73
115 76
115 85
115 87
115 89
115 100
115 101
115 102
115 113
115 114
116 4
116 12
116 18
116 25
116 32
116 38
116 46
116 51
116 60
116 64
116 71
116 74
116 77
116 86
116 88
116 90
116 101
116 102
116 103
116 113
116 114
116 115
117 5
117 13
117 19
117 26
117 33
117 39
117 47
117 52
117 57
117 61
117 65
117 72
117 75
117 78
117 87
117 89
117 91
117 102
117 103
117 104
117 113
117 114
117 115
117 116
118 6
118 14
118 20
118 27
118 34
118 40
118 43
118 48
118 53
118 58
118 62
118 66
118 73
118 76
118 79
118 88
118 90
118 92
118 103
118 104
118 105
118 113
118 114
118 115
118 116
118 117
119 7
119 21
119 28
119 29
119 35
119 41
119 44
119 49
119 54
119 59
119 63
119 67
119 74
119 77
119 80
119 89
119 91
119 93
119 104
119 105
119 106
119 113
119 114
119 115
119 116
119 117
119 118
120 8
120 15
120 22
120 30
120 36
120 42
120 45
120 50
120 55
120 60
120 64
120 68
120 75
120 78
120 81
120 90
120 92
120 94
120 105
120 106
120 107
120 113
120 114
120 115
120 116
120 117
120 118
120 119
121 1
121 9
121 16
121 23
121 31
121 37
121 46
121 51
121 56
121 61
121 65
121 69
121 76
121 79
121 82
121 91
121 93
121 95
121 106
121 107
121 108
121 113
121 114
121 115
121 116
121 117
121 118
121 119
121 120
122 2
122 10
122 17
122 24
122 32
122 38
122 47
122 52
122 62
122 66
122 70
122 77
122 80
122 83
122 92
122 94
122 96
122 107
122 108
122 109
122 113
122 114
122 115
122 116
122 117
122 118
122 119
122 120
122 121
123 3
123 11
123 18
123 25
123 33
123 39
123 48
123 53
123 63
123 67
123 78
123 81
123 84
123 93
123 95
123 97
123 108
123 109
123 110
123 113
123 114
123 115
123 116
123 117
123 118
123 119
123 120
123 121
123 122
124 4
124 12
124 19
124 26
124 34
124 40
124 49
124 54
124 64
124 68
124 79
124 82
124 94
124 96
124 98
124 109
124 110
124 111
124 113
124 114
124 115
124 116
124 117
124 118
124 119
124 120
124 121
124 122
124 123
125 5
125 13
125 20
125 27
125 35
125 41
125 50
125 55
125 65
125 69
125 80
125 83
125 95
125 97
125 110
125 111
125 112
125 113
125 114
125 115
125 116
125 117
125 118
125 119
125 120
125 121
125 122
125 123
125 124
126 6
126 14
126 21
126 28
126 36
126 42
126 51
126 56
126 66
126 70
126 81
126 84
126 96
126 98
126 111
126 112
126 113
126 114
126 115
126 116
126 117
126 118
126 119
126 120
126 121
126 122
126 123
126 124
126 125
127 1
127 10
127 15
127 23
127 29
127 36
127 43
127 49
127 57
127 62
127 71
127 75
127 85
127 88
127 99
127 101
127 113
127 114
128 2
128 11
128 16
128 24
128 30
128 37
128 44
128 50
128 58
128 63
128 72
128 76
128 86
128 89
128 100
128 102
128 113
128 114
128 115
128 127
129 3
129 12
129 17
129 25
129 31
129 38
129 45
129 51
129 59
129 64
129 73
129 77
129 87
129 90
129 99
129 101
129 103
129 114
129 115
129 116
129 127
129 128
130 4
130 13
130 18
130 26
130 32
130 39
130 46
130 52
130 60
130 65
130 74
130 78
130 85
130 88
130 91
130 100
130 102
130 104
130 115
130 116
130 117
130 127
130 128
130 129
131 5
131 14
131 19
131 27
131 33
131 40
131 47
131 53
131 61
131 66
131 71
131 75
131 79
131 86
131 89
131 92
131 101
131 103
131 105
131 116
131 117
131 118
131 127
131 128
131 129
131 130
132 6
132 20
132 28
132 34
132 41
132 48
132 54
132 57
132 62
132 67
132 72
132 76
132 80
132 87
132 90
132 93
132 102
132 104
132 106
132 117
132 118
132 119
132 127
132 128
132 129
132 130
132 131
133 7
133 21
133 35
133 42
133 43
133 49
133 55
133 58
133 63
133 68
133 73
133 77
133 81
133 88
133 91
133 94
133 103
133 105
133 107
133 118
133 119
133 120
133 127
133 128
133 129
133 130
133 131
133 132
134 8
134 22
134 29
134 36
134 44
134 50
134 56
134 59
134 64
134 69
134 74
134 78
134 82
134 89
134 92
134 95
134 104
134 106
134 108
134 119
134 120
134 121
134 127
134 128
134 129
134 130
134 131
134 132
134 133
135 9
135 15
135 23
135 30
135 37
135 45
135 51
135 60
135 65
135 70
135 75
135 79
135 83
135 90
135 93
135 96
135 105
135 107
135 109
135 120
135 121
135 122
135 127
135 128
135 129
135 130
135 131
135 132
135 133
135 134
136 1
136 10
136 16
136 24
136 31
136 38
136 46
136 52
136 61
136 66
136 76
136 80
136 84
136 91
136 94
136 97
136 106
136 108
136 110
136 121
136 122
136 123
136 127
136 128
136 129
136 130
136 131
136 132
136 133
136 134
136 135
137 2
137 11
137 17
137 25
137 32
137 39
137 47
137 53
137 62
137 67
137 77
137 81
137 92
137 95
137 98
137 107
137 109
137 111
137 122
137 123
137 124
137 127
137 128
137 129
137 130
137 131
137 132
137 133
137 134
137 135
137 136
138 3
138 12
138 18
138 26
138 33
138 40
138 48
138 54
138 63
138 68
138 78
138 82
138 93
138 96
138 108
138 110
138 112
138 123
138 124
138 125
138 127
138 128
138 129
138 130
138 131
138 132
138 133
138 134
138 135
138 136
138 137
139 4
139 13
139 19
139 27
139 34
139 41
139 49
139 55
139 64
139 69
139 79
139 83
139 94
139 97
139 109
139 111
139 124
139 125
139 126
139 127
139 128
139 129
139 130
139 131
139 132
139 133
139 134
139 135
139 136
139 137
139 138
140 5
140 14
140 20
140 28
140 35
140 42
140 50
140 56
140 65
140 70
140 80
140 84
140 95
140 98
140 110
140 112
140 125
140 126
140 127
140 128
140 129
140 130
140 131
140 132
140 133
140 134
140 135
140 136
140 137
140 138
140 139
141 1
141 11
141 15
141 24
141 29
141 37
141 43
141 50
141 57
141 63
141 71
141 76
141 85
141 89
141 99
141 102
141 113
141 115
141 127
141 128
142 2
142 12
142 16
142 25
142 30
142 38
142 44
142 51
142 58
142 64
142 72
142 77
142 86
142 90
142 100
142 103
142 114
142 116
142 127
142 128
142 129
142 141
143 3
143 13
143 17
143 26
143 31
143 39
143 45
143 52
143 59
143 65
143 73
143 78
143 87
143 91
143 101
143 104
143 113
143 115
143 117
143 128
143 129
143 130
143 141
143 142
144 4
144 14
144 18
144 27
144 32
144 40
144 46
144 53
144 60
144 66
144 74
144 79
144 88
144 92
144 99
144 102
144 105
144 114
144 116
144 118
144 129
144 130
144 131
144 141
144 142
144 143
145 5
145 19
145 28
145 33
145 41
145 47
145 54
145 61
145 67
145 75
145 80
145 85
145 89
145 93
145 100
145 103
145 106
145 115
145 117
145 119
145 130
145 131
145 132
145 141
145 142
145 143
145 144
146 6
146 20
146 34
146 42
146 48
146 55
146 62
146 68
146 71
146 76
146 81
146 86
146 90
146 94
146 101
146 104
146 107
146 116
146 118
146 120
146 131
146 132
146 133
146 141
146 142
146 143
146 144
146 145
147 7
147 21
147 35
147 49
147 56
147 57
147 63
147 69
147 72
147 77
147 82
147 87
147 91
147 95
147 102
147 105
147 108
147 117
147 119
147 121
147 132
147 133
147 134
147 141
147 142
147 143
147 144
147 145
147 146
148 8
148 22
148 36
148 43
148 50
148 58
148 64
148 70
148 73
148 78
148 83
148 88
148 92
148 96
148 103
148 106
148 109
148 118
148 120
148 122
148 133
148 134
148 135
148 141
148 142
148 143
148 144
148 145
148 146
148 147
149 9
149 23
149 29
149 37
149 44
149 51
149 59
149 65
149 74
149 79
149 84
149 89
149 93
149 97
149 104
149 107
149 110
149 119
149 121
149 123
149 134
149 135
149 136
149 141
149 142
149 143
149 144
149 145
149 146
149 147
149 148
150 10
150 15
150 24
150 30
150 38
150 45
150 52
150 60
150 66
150 75
150 80
150 90
150 94
150 98
150 105
150 108
150 111
150 120
150 122
150 124
150 135
150 136
150 137
150 141
150 142
150 143
150 144
150 145
150 146
150 147
150 148
150 149
151 1
151 11
151 16
151 25
151 31
151 39
151 46
151 53
151 61
151 67
151 76
151 81
151 91
151 95
151 106
151 109
151 112
151 121
151 123
151 125
151 136
151 137
151 138
151 141
151 142
151 143
151 144
151 145
151 146
151 147
151 148
151 149
151 150
152 2
152 12
152 17
152 26
152 32
152 40
152 47
152 54
152 62
152 68
152 77
152 82
152 92
152 96
152 107
152 110
152 122
152 124
152 126
152 137
152 138
152 139
152 141
152 142
152 143
152 144
152 145
152 146
152 147
152 148
152 149
152 150
152 151
153 3
153 13
153 18
153 27
153 33
153 41
153 48
153 55
153 63
153 69
153 78
153 83
153 93
153 97
153 108
153 111
153 123
153 125
153 138
153 139
153 140
153 141
153 142
153 143
153 144
153 145
153 146
153 147
153 148
153 149
153 150
153 151
153 152
154 4
154 14
154 19
154 28
154 34
154 42
154 49
154 56
154 64
154 70
154 79
154 84
154 94
154 98
154 109
154 112
154 124
154 126
154 139
154 140
154 141
154 142
154 143
154 144
154 145
154 146
154 147
154 148
154 149
154 150
154 151
154 152
154 153
155 1
155 12
155 15
155 25
155 29
155 38
155 43
155 51
155 57
155 64
155 71
155 77
155 85
155 90
155 99
155 103
155 113
155 116
155 127
155 129
155 141
155 142
156 2
156 13
156 16
156 26
156 30
156 39
156 44
156 52
156 58
156 65
156 72
156 78
156 86
156 91
156 100
156 104
156 114
156 117
156 128
156 130
156 141
156 142
156 143
156 155
157 3
157 14
157 17
157 27
157 31
157 40
157 45
157 53
157 59
157 66
157 73
157 79
157 87
157 92
157 101
157 105
157 115
157 118
157 127
157 129
157 131
157 142
157 143
157 144
157 155
157 156
158 4
158 18
158 28
158 32
158 41
158 46
158 54
158 60
158 67
158 74
158 80
158 88
158 93
158 102
158 106
158 113
158 116
158 119
158 128
158 130
158 132
158 143
158 144
158 145
158 155
158 156
158 157
159 5
159 19
159 33
159 42
159 47
159 55
159 61
159 68
159 75
159 81
159 89
159 94
159 99
159 103
159 107
159 114
159 117
159 120
159 129
159 131
159 133
159 144
159 145
159 146
159 155
159 156
159 157
159 158
160 6
160 20
160 34
160 48
160 56
160 62
160 69
160 76
160 82
160 85
160 90
160 95
160 100
160 104
160 108
160 115
160 118
160 121
160 130
160 132
160 134
160 145
160 146
160 147
160 155
160 156
160 157
160 158
160 159
161 7
161 21
161 35
161 49
161 63
161 70
161 71
161 77
161 83
161 86
161 91
161 96
161 101
161 105
161 109
161 116
161 119
161 122
161 131
161 133
161 135
161 146
161 147
161 148
161 155
161 156
161 157
161 158
161 159
161 160
162 8
162 22
162 36
162 50
162 57
162 64
162 72
162 78
162 84
162 87
162 92
162 97
162 102
162 106
162 110
162 117
162 120
162 123
162 132
162 134
162 136
162 147
162 148
162 149
162 155
162 156
162 157
162 158
162 159
162 160
162 161
163 9
163 23
163 37
163 43
163 51
163 58
163 65
163 73
163 79
163 88
163 93
163 98
163 103
163 107
163 111
163 118
163 121
163 124
163 133
163 135
163 137
163 148
163 149
163 150
163 155
163 156
163 157
163 158
163 159
163 160
163 161
163 162
164 10
164 24
164 29
164 38
164 44
164 52
164 59
164 66
164 74
164 80
164 89
164 94
164 104
164 108
164 112
164 119
164 122
164 125
164 134
164 136
164 138
164 149
164 150
164 151
164 155
164 156
164 157
164 158
164 159
164 160
164 161
164 162
164 163
165 11
165 15
165 25
165 30
165 39
165 45
165 53
165 60
165 67
165 75
165 81
165 90
165 95
165 105
165 109
165 120
165 123
165 126
165 135
165 137
165 139
165 150
165 151
165 152
165 155
165 156
165 157
165 158
165 159
165 160
165 161
165 162
165 163
165 164
166 1
166 12
166 16
166 26
166 31
166 40
166 46
166 54
166 61
166 68
166 76
166 82
166 91
166 96
166 106
166 110
166 121
166 124
166 136
166 138
166 140
166 151
166 152
166 153
166 155
166 156
166 157
166 158
166 159
166 160
166 161
166 162
166 163
166 164
166 165
167 2
167 13
167 17
167 27
167 32
167 41
167 47
167 55
167 62
167 69
167 77
167 83
167 92
167 97
167 107
167 111
167 122
167 125
167 137
167 139
167 152
167 153
167 154
167 155
167 156
167 157
167 158
167 159
167 160
167 161
167 162
167 163
167 164
167 165
167 166
168 3
168 14
168 18
168 28
168 33
168 42
168 48
168 56
168 63
168 70
168 78
168 84
168 93
168 98
168 108
168 112
168 123
168 126
168 138
168 140
168 153
168 154
168 155
168 156
168 157
168 158
168 159
168 160
168 161
168 162
168 163
168 164
168 165
168 166
168 167
169 1
169 13
169 15
169 26
169 29
169 39
169 43
169 52
169 57
169 65
169 71
169 78
169 85
169 91
169 99
169 104
169 113
169 117
169 127
169 130
169 141
169 143
169 155
169 156
170 2
170 14
170 16
170 27
170 30
170 40
170 44
170 53
170 58
170 66
170 72
170 79
170 86
170 92
170 100
170 105
170 114
170 118
170 128
170 131
170 142
170 144
170 155
170 156
170 157
170 169
171 3
171 17
171 28
171 31
171 41
171 45
171 54
171 59
171 67
171 73
171 80
171 87
171 93
171 101
171 106
171 115
171 119
171 129
171 132
171 141
171 143
171 145
171 156
171 157
171 158
171 169
171 170
172 4
172 18
172 32
172 42
172 46
172 55
172 60
172 68
172 74
172 81
172 88
172 94
172 102
172 107
172 116
172 120
172 127
172 130
172 133
172 142
172 144
172 146
172 157
172 158
172 159
172 169
172 170
172 171
173 5
173 19
173 33
173 47
173 56
173 61
173 69
173 75
173 82
173 89
173 95
173 103
173 108
173 113
173 117
173 121
173 128
173 131
173 134
173 143
173 145
173 147
173 158
173 159
173 160
173 169
173 170
173 171
173 172
174 6
174 20
174 34
174 48
174 62
174 70
174 76
174 83
174 90
174 96
174 99
174 104
174 109
174 114
174 118
174 122
174 129
174 132
174 135
174 144
174 146
174 148
174 159
174 160
174 161
174 169
174 170
174 171
174 172
174 173
175 7
175 21
175 35
175 49
175 63
175 77
175 84
175 85
175 91
175 97
175 100
175 105
175 110
175 115
175 119
175 123
175 130
175 133
175 136
175 145
175 147
175 149
175 160
175 161
175 162
175 169
175 170
175 171
175 172
175 173
175 174
176 8
176 22
176 36
176 50
176 64
176 71
176 78
176 86
176 92
176 98
176 101
176 106
176 111
176 116
176 120
176 124
176 131
176 134
176 137
176 146
176 148
176 150
176 161
176 162
176 163
176 169
176 170
176 171
176 172
176 173
176 174
176 175
177 9
177 23
177 37
177 51
177 57
177 65
177 72
177 79
177 87
177 93
177 102
177 107
177 112
177 117
177 121
177 125
177 132
177 135
177 138
177 147
177 149
177 151
177 162
177 163
177 164
177 169
177 170
177 171
177 172
177 173
177 174
177 175
177 176
178 10
178 24
178 38
178 43
178 52
178 58
178 66
178 73
178 80
178 88
178 94
178 103
178 108
178 118
178 122
178 126
178 133
178 136
178 139
178 148
178 150
178 152
178 163
178 164
178 165
178 169
178 170
178 171
178 172
178 173
178 174
178 175
178 176
178 177
179 11
179 25
179 29
179 39
179 44
179 53
179 59
179 67
179 74
179 81
179 89
179 95
179 104
179 109
179 119
179 123
179 134
179 137
179 140
179 149
179 151
179 153
179 164
179 165
179 166
179 169
179 170
179 171
179 172
179 173
179 174
179 175
179 176
179 177
179 178
180 12
180 15
180 26
180 30
180 40
180 45
180 54
180 60
180 68
180 75
180 82
180 90
180 96
180 105
180 110
180 120
180 124
180 135
180 138
180 150
180 152
180 154
180 165
180 166
180 167
180 169
180 170
180 171
180 172
180 173
180 174
180 175
180 176
180 177
180 178
180 179
181 1
181 13
181 16
181 27
181 31
181 41
181 46
181 55
181 61
181 69
181 76
181 83
181 91
181 97
181 106
181 111
181 121
181 125
181 136
181 139
181 151
181 153
181 166
181 167
181 168
181 169
181 170
181 171
181 172
181 173
181 174
181 175
181 176
181 177
181 178
181 179
181 180
182 2
182 14
182 17
182 28
182 32
182 42
182 47
182 56
182 62
182 70
182 77
182 84
182 92
182 98
182 107
182 112
182 122
182 126
182 137
182 140
182 152
182 154
182 167
182 168
182 169
182 170
182 171
182 172
182 173
182 174
182 175
182 176
182 177
182 178
182 179
182 180
182 181
183 1
183 14
183 15
183 27
183 29
183 40
183 43
183 53
183 57
183 66
183 71
183 79
183 85
183 92
183 99
183 105
183 113
183 118
183 127
183 131
183 141
183 144
183 155
183 157
183 169
183 170
184 2
184 16
184 28
184 30
184 41
184 44
184 54
184 58
184 67
184 72
184 80
184 86
184 93
184 100
184 106
184 114
184 119
184 128
184 132
184 142
184 145
184 156
184 158
184 169
184 170
184 171
184 183
185 3
185 17
185 31
185 42
185 45
185 55
185 59
185 68
185 73
185 81
185 87
185 94
185 101
185 107
185 115
185 120
185 129
185 133
185 143
185 146
185 155
185 157
185 159
185 170
185 171
185 172
185 183
185 184
186 4
186 18
186 32
186 46
186 56
186 60
186 69
186 74
186 82
186 88
186 95
186 102
186 108
186 116
186 121
186 130
186 134
186 141
186 144
186 147
186 156
186 158
186 160
186 171
186 172
186 173
186 183
186 184
186 185
187 5
187 19
187 33
187 47
187 61
187 70
187 75
187 83
187 89
187 96
187 103
187 109
187 117
187 122
187 127
187 131
187 135
187 142
187 145
187 148
187 157
187 159
187 161
187 172
187 173
187 174
187 183
187 184
187 185
187 186
188 6
188 20
188 34
188 48
188 62
188 76
188 84
188 90
188 97
188 104
188 110
188 113
188 118
188 123
188 128
188 132
188 136
188 143
188 146
188 149
188 158
188 160
188 162
188 173
188 174
188 175
188 183
188 184
188 185
188 186
188 187
189 7
189 21
189 35
189 49
189 63
189 77
189 91
189 98
189 99
189 105
189 111
189 114
189 119
189 124
189 129
189 133
189 137
189 144
189 147
189 150
189 159
189 161
189 163
189 174
189 175
189 176
189 183
189 184
189 185
189 186
189 187
189 188
190 8
190 22
190 36
190 50
190 64
190 78
190 85
190 92
190 100
190 106
190 112
190 115
190 120
190 125
190 130
190 134
190 138
190 145
190 148
190 151
190 160
190 162
190 164
190 175
190 176
190 177
190 183
190 184
190 185
190 186
190 187
190 188
190 189
191 9
191 23
191 37
191 51
191 65
191 71
191 79
191 86
191 93
191 101
191 107
191 116
191 121
191 126
191 131
191 135
191 139
191 146
191 149
191 152
191 161
191 163
191 165
191 176
191 177
191 178
191 183
191 184
191 185
191 186
191 187
191 188
191 189
191 190
192 10
192 24
192 38
192 52
192 57
192 66
192 72
192 80
192 87
192 94
192 102
192 108
192 117
192 122
192 132
192 136
192 140
192 147
192 150
192 153
192 162
192 164
192 166
192 177
192 178
192 179
192 183
192 184
192 185
192 186
192 187
192 188
192 189
192 190
192 191
193 11
193 25
193 39
193 43
193 53
193 58
193 67
193 73
193 81
193 88
193 95
193 103
193 109
193 118
193 123
193 133
193 137
193 148
193 151
193 154
193 163
193 165
193 167
193 178
193 179
193 180
193 183
193 184
193 185
193 186
193 187
193 188
193 189
193 190
193 191
193 192
194 12
194 26
194 29
194 40
194 44
194 54
194 59
194 68
194 74
194 82
194 89
194 96
194 104
194 110
194 119
194 124
194 134
194 138
194 149
194 152
194 164
194 166
194 168
194 179
194 180
194 181
194 183
194 184
194 185
194 186
194 187
194 188
194 189
194 190
194 191
194 192
194 193
195 13
195 15
195 27
195 30
195 41
195 45
195 55
195 60
195 69
195 75
195 83
195 90
195 97
195 105
195 111
195 120
195 125
195 135
195 139
195 150
195 153
195 165
195 167
195 180
195 181
195 182
195 183
195 184
195 185
195 186
195 187
195 188
195 189
195 190
195 191
195 192
195 193
195 194
196 1
196 14
196 16
196 28
196 31
196 42
196 46
196 56
196 61
196 70
196 76
196 84
196 91
196 98
196 106
196 112
196 121
196 126
196 136
196 140
196 151
196 154
196 166
196 168
196 181
196 182
196 183
196 184
196 185
196 186
196 187
196 188
196 189
196 190
196 191
196 192
196 193
196 194
196 195
?